Traveling Salesman Problem/TSP_generados/Aleatorio1621104123_19.tsp
NAME: Aleatorio1621104123_19.tsp
COMMENT: Randomly generated scenario
TYPE: TSP
DIMENSION: 19
EDGE_WEIGHT_TYPE: ATT
NODE_COORD_SECTION
1 29.45 45.8
2 40.1 29.5
3 23.02 38.55
4 33.92 7.67
5 1.41 10.84
6 0.63 2.31
7 8.25 0.96
8 49.1 22.91
9 13.66 21.57
10 10.81 9.8
11 25.18 1.31
12 43.49 49.89
13 13.01 10.03
14 7.98 43.02
15 35.26 34.6
16 16.62 48.05
17 1.29 31.76
18 42.89 21.25
19 9.99 10.44
