Traveling Salesman Problem/TSP_generados/Aleatorio1621104123_19.opt.tour
NAME: Aleatorio1621104123_19.opt.tour
COMMENT: Optimal solution for Aleatorio1621104123_19 (200.59040825384005)
TYPE: TOUR
DIMENSION: 19
TOUR_SECTION
1 3 16 14 17 9 13 10 19 5 6 7 11 4 18 8 2 15 12
-1
EOF
